sat
(= |goto_symex::&92;guard#1| true)
(= |goto_symex::&92;guard#2| false)
(= |goto_symex::&92;guard#3| true)
(= |memory_model::choice_rf_1_4_0_8_T_0| false)
(= |memory_model::choice_rf_1_4_2_3_T_1| false)
(= |memory_model::choice_rf_1_4_3_3_T_2| false)
(= |memory_model::choice_rf_2_2_0_8_T_3| true)
(= |memory_model::choice_rf_2_2_1_5_T_4| false)
(= |memory_model::choice_rf_2_2_3_3_T_5| false)
(= |memory_model::choice_rf_3_2_0_8_T_6| false)
(= |memory_model::choice_rf_3_2_1_5_T_7| false)
(= |memory_model::choice_rf_3_2_2_3_T_8| false)
(= |memory_model::choice_rf_0_20_0_6_T_9| false)
(= |memory_model::choice_rf_0_20_0_16_T_10| true)
(= |memory_model::choice_rf_0_25_0_6_T_11| false)
(= |memory_model::choice_rf_0_25_0_16_T_12| false)
(= |memory_model::choice_rf_0_25_0_21_T_13| true)
(= |memory_model::choice_rf_1_0_0_10_F_14| false)
(= |memory_model::choice_rf_1_0_0_14_F_15| true)
(= |memory_model::choice_rf_1_0_2_1_F_16| false)
(= |memory_model::choice_rf_1_0_3_1_F_17| false)
(= |memory_model::choice_rf_1_2_0_10_F_18| false)
(= |memory_model::choice_rf_1_2_0_14_F_19| false)
(= |memory_model::choice_rf_1_2_2_1_F_20| true)
(= |memory_model::choice_rf_1_2_3_1_F_21| false)
(= |memory_model::choice_rf_2_0_0_10_F_22| false)
(= |memory_model::choice_rf_2_0_0_14_F_23| true)
(= |memory_model::choice_rf_2_0_3_1_F_24| false)
(= |memory_model::choice_rf_3_0_0_10_F_25| false)
(= |memory_model::choice_rf_3_0_0_14_F_26| false)
(= |memory_model::choice_rf_3_0_2_1_F_27| false)
(= |memory_model::choice_rf_0_19_0_9_F_28| false)
(= |memory_model::choice_rf_0_19_0_15_F_29| true)
(= |memory_model::choice_rf_0_24_0_9_F_30| false)
(= |memory_model::choice_rf_0_24_0_15_F_31| true)
(= |memory_model::choice_rf_1_1_0_9_F_32| false)
(= |memory_model::choice_rf_1_1_0_15_F_33| true)
(= |memory_model::choice_rf_1_3_0_9_F_34| false)
(= |memory_model::choice_rf_1_3_0_15_F_35| true)
(= |memory_model::choice_ws-ext_0_8_1_5_T_36| true)
(= |memory_model::choice_ws-ext_0_8_2_3_T_37| true)
(= |memory_model::choice_ws-ext_0_8_3_3_T_38| true)
(= |memory_model::choice_ws-ext_1_5_2_3_T_39| false)
(= |memory_model::choice_ws-ext_1_5_3_3_T_40| true)
(= |memory_model::choice_ws-ext_2_3_3_3_T_41| true)
(= |memory_model::choice_ws-ext_0_10_2_1_F_42| true)
(= |memory_model::choice_ws-ext_0_10_3_1_F_43| true)
(= |memory_model::choice_ws-ext_0_14_2_1_F_44| true)
(= |memory_model::choice_ws-ext_0_14_3_1_F_45| true)
(= |memory_model::choice_ws-ext_2_1_3_1_F_46| true)
(= |argc'#0| #b00010000000000000000000000000000)
(= |nondet_symex::nondet0| #b00000000000000000000000000000001)
(= |n#3| #b00000000000000000000000000000001)
(= |__CPROVER_next_thread_id#3| #b00000000000000000000000000000001)
(= |__CPROVER_next_thread_id#5| #b00000000000000000000000000000010)
(= |n#4| #b00000000000000000000000000000001)
(= |__CPROVER_next_thread_id#8| #b00000000000000000000000000000010)
(= |x#4| #b00000000000000000000000000000001)
(= |n#6| #b00000000000000000000000000000001)
(= |pthread_create::1::this_thread_id!2@0#0| #b00000000000000000000000000000000)
(= |x#5| #b00000000000000000000000000000000)
(= |pthread_create::1::this_thread_id!3@0#0| #b00000000000000000000000000000000)
(= |x#7| #b00000000000000000000000000000000)
(= |symex::io::0| #b00010000000000000000000000000000)
(= |__CPROVER_threads_exited#1$wclk$8| #b001110)
(= |__CPROVER_threads_exited#2$rclk$8| #b111101)
(= |__CPROVER_threads_exited#5$wclk$8| #b111101)
(= |__CPROVER_threads_exited#7$wclk$8| #b111111)
(= |__CPROVER_threads_exited#4$rclk$8| #b111100)
(= |__CPROVER_threads_exited#3$wclk$8| #b111110)
(= |__CPROVER_threads_exited#6$rclk$8| #b111110)
(= |x#3| #b00000000000000000000000000000000)
(= |x#1$wclk$8| #b010110)
(= |x#3$rclk$8| #b110011)
(= |x#2$wclk$8| #b011110)
(= |x#6$wclk$8| #b111010)
(= |x#8$wclk$8| #b111101)
(= |x#4$rclk$8| #b111011)
(= |x#5$rclk$8| #b110111)
(= |x#7$rclk$8| #b111100)
(= |n#5| #b00000000000000000000000000000001)
(= |n#1$wclk$8| #b001111)
(= |n#5$rclk$8| #b110111)
(= |n#2$wclk$8| #b101110)
(= |n#6$rclk$8| #b111100)
(= t1$18$spwnclk$8 #b110010)
(= t1$23$spwnclk$8 #b110110)
(= t1$28$spwnclk$8 #b111010)
(= |__CPROVER_dead_object#1$wclk$8| #b000000)
(= |__CPROVER_deallocated#1$wclk$8| #b000010)
(= |__CPROVER_malloc_is_new_array#1$wclk$8| #b000100)
(= |__CPROVER_malloc_object#1$wclk$8| #b001000)
(= |__CPROVER_malloc_size#1$wclk$8| #b001001)
(= |__CPROVER_memory_leak#1$wclk$8| #b001011)
(= |__CPROVER_next_thread_id#1$wclk$8| #b001100)
(= |__CPROVER_pipe_count#1$wclk$8| #b001101)
(= |argv'#1$wclk$8| #b010111)
(= |main::1::t1!0@1#1$wclk$8| #b011010)
(= |main::1::t2!0@1#1$wclk$8| #b011011)
(= |__CPROVER_next_thread_id#2$wclk$8| #b110000)
(= |main::1::t1!0@1#2$wclk$8| #b110001)
(= |n#3$rclk$8| #b110011)
(= |__CPROVER_next_thread_id#3$rclk$8| #b110100)
(= |__CPROVER_next_thread_id#7$wclk$8| #b110100)
(= |main::1::t2!0@1#2$wclk$8| #b110101)
(= |n#4$rclk$8| #b110111)
(= |__CPROVER_next_thread_id#8$rclk$8| #b111000)
(= |__CPROVER_next_thread_id#10$wclk$8| #b111000)
(= |main::1::t2!0@1#3$wclk$8| #b111001)
(= array_of.0 @fun_7)
(= |__CPROVER_threads_exited#2| @fun_8)
(= |__CPROVER_threads_exited#4| @fun_7)
(= |__CPROVER_threads_exited#6| @fun_12)
(function @fun_7
 (type (Array (_ BitVec 32) (_ BitVec 1)))
 (= (@fun_7 #b00000000000000000000000000000000) #b0)
 (default #b1))
(function @fun_8
 (type (Array (_ BitVec 32) (_ BitVec 1)))
 (default #b0))
(function @fun_12
 (type (Array (_ BitVec 32) (_ BitVec 1)))
 (= (@fun_12 #b00000000000000000000000000000000) #b0)
 (= (@fun_12 #b10000000000000000000000000000000) #b0)
 (default #b1))

real	0m0.005s
user	0m0.005s
sys	0m0.001s
State: AC Run_time: 0.0073089599609375